/* Problème */

/* Objective function */
min: +x1 +x2;

/* Constraints */
c1: +x1 >= 5.001;
c2: +x1 >= 5.001;
c3: +x1 <= 2.999;
c4: +x2 >= 5.001;
c5: +x2 <= 2.999;

/* Variable bounds */
x1 = 5;
x2 = 2;
